784 1568
1 2 1
1 29 4
2 3 4
2 30 4
3 4 3
3 31 1
4 5 4
4 32 1
5 6 5
5 33 5
6 7 4
6 34 3
7 8 1
7 35 5
8 9 3
8 36 3
9 10 4
9 37 3
10 11 4
10 38 4
11 12 4
11 39 2
12 13 1
12 40 5
13 14 1
13 41 5
14 15 3
14 42 2
15 16 3
15 43 5
16 17 3
16 44 5
17 18 3
17 45 5
18 19 2
18 46 1
19 20 3
19 47 3
20 21 5
20 48 5
21 22 4
21 49 3
22 23 4
22 50 1
23 24 4
23 51 2
24 25 1
24 52 5
25 26 2
25 53 2
26 27 4
26 54 1
27 28 1
27 55 4
28 56 4
29 30 1
29 57 4
30 31 3
30 58 4
31 32 3
31 59 5
32 33 3
32 60 2
33 34 2
33 61 2
34 35 5
34 62 1
35 36 3
35 63 5
36 37 4
36 64 3
37 38 2
37 65 5
38 39 3
38 66 5
39 40 2
39 67 5
40 41 4
40 68 4
41 42 1
41 69 2
42 43 5
42 70 3
43 44 2
43 71 5
44 45 1
44 72 2
45 46 5
45 73 5
46 47 4
46 74 3
47 48 1
47 75 2
48 49 4
48 76 2
49 50 1
49 77 2
50 51 3
50 78 1
51 52 2
51 79 4
52 53 2
52 80 2
53 54 1
53 81 5
54 55 1
54 82 1
55 56 5
55 83 4
56 84 4
57 58 3
57 85 1
58 59 5
58 86 5
59 60 5
59 87 5
60 61 4
60 88 4
61 62 1
61 89 3
62 63 4
62 90 3
63 64 2
63 91 1
64 65 5
64 92 2
65 66 3
65 93 4
66 67 4
66 94 2
67 68 1
67 95 3
68 69 2
68 96 1
69 70 1
69 97 5
70 71 3
70 98 2
71 72 4
71 99 1
72 73 5
72 100 4
73 74 3
73 101 1
74 75 2
74 102 1
75 76 4
75 103 1
76 77 3
76 104 2
77 78 2
77 105 5
78 79 5
78 106 3
79 80 4
79 107 2
80 81 1
80 108 5
81 82 3
81 109 2
82 83 4
82 110 1
83 84 5
83 111 3
84 112 5
85 86 2
85 113 1
86 87 4
86 114 2
87 88 5
87 115 2
88 89 3
88 116 4
89 90 4
89 117 4
90 91 2
90 118 5
91 92 4
91 119 2
92 93 1
92 120 1
93 94 2
93 121 4
94 95 5
94 122 5
95 96 4
95 123 4
96 97 3
96 124 2
97 98 4
97 125 2
98 99 3
98 126 5
99 100 4
99 127 2
100 101 2
100 128 1
101 102 5
101 129 2
102 103 3
102 130 3
103 104 3
103 131 4
104 105 4
104 132 5
105 106 5
105 133 5
106 107 4
106 134 3
107 108 5
107 135 3
108 109 5
108 136 3
109 110 2
109 137 1
110 111 3
110 138 5
111 112 1
111 139 5
112 140 4
113 114 2
113 141 3
114 115 4
114 142 5
115 116 1
115 143 3
116 117 4
116 144 4
117 118 3
117 145 1
118 119 4
118 146 5
119 120 1
119 147 1
120 121 2
120 148 3
121 122 1
121 149 4
122 123 5
122 150 4
123 124 4
123 151 5
124 125 2
124 152 3
125 126 4
125 153 4
126 127 5
126 154 3
127 128 3
127 155 2
128 129 4
128 156 1
129 130 3
129 157 1
130 131 3
130 158 3
131 132 3
131 159 1
132 133 4
132 160 2
133 134 1
133 161 1
134 135 4
134 162 3
135 136 3
135 163 4
136 137 1
136 164 4
137 138 1
137 165 2
138 139 5
138 166 1
139 140 4
139 167 2
140 168 5
141 142 5
141 169 4
142 143 4
142 170 3
143 144 3
143 171 2
144 145 5
144 172 2
145 146 5
145 173 1
146 147 4
146 174 3
147 148 4
147 175 5
148 149 5
148 176 1
149 150 5
149 177 3
150 151 1
150 178 1
151 152 3
151 179 2
152 153 5
152 180 2
153 154 1
153 181 1
154 155 4
154 182 1
155 156 5
155 183 3
156 157 2
156 184 1
157 158 1
157 185 3
158 159 1
158 186 3
159 160 2
159 187 4
160 161 2
160 188 4
161 162 2
161 189 2
162 163 1
162 190 3
163 164 5
163 191 2
164 165 4
164 192 4
165 166 3
165 193 3
166 167 4
166 194 5
167 168 3
167 195 4
168 196 2
169 170 3
169 197 3
170 171 5
170 198 1
171 172 2
171 199 3
172 173 4
172 200 3
173 174 2
173 201 2
174 175 5
174 202 2
175 176 4
175 203 2
176 177 4
176 204 4
177 178 1
177 205 1
178 179 2
178 206 2
179 180 5
179 207 5
180 181 3
180 208 3
181 182 4
181 209 4
182 183 2
182 210 2
183 184 3
183 211 5
184 185 1
184 212 3
185 186 4
185 213 2
186 187 3
186 214 1
187 188 2
187 215 4
188 189 1
188 216 2
189 190 2
189 217 2
190 191 1
190 218 1
191 192 4
191 219 2
192 193 2
192 220 5
193 194 5
193 221 2
194 195 1
194 222 5
195 196 1
195 223 2
196 224 4
197 198 1
197 225 5
198 199 4
198 226 1
199 200 1
199 227 3
200 201 1
200 228 2
201 202 2
201 229 4
202 203 4
202 230 1
203 204 4
203 231 1
204 205 4
204 232 1
205 206 5
205 233 4
206 207 1
206 234 5
207 208 3
207 235 2
208 209 5
208 236 1
209 210 2
209 237 5
210 211 4
210 238 1
211 212 1
211 239 2
212 213 2
212 240 3
213 214 2
213 241 5
214 215 1
214 242 3
215 216 5
215 243 3
216 217 1
216 244 3
217 218 2
217 245 1
218 219 4
218 246 3
219 220 4
219 247 4
220 221 3
220 248 2
221 222 4
221 249 3
222 223 2
222 250 2
223 224 1
223 251 4
224 252 2
225 226 2
225 253 1
226 227 1
226 254 5
227 228 3
227 255 4
228 229 4
228 256 1
229 230 3
229 257 5
230 231 2
230 258 1
231 232 5
231 259 2
232 233 1
232 260 4
233 234 3
233 261 5
234 235 1
234 262 2
235 236 2
235 263 2
236 237 4
236 264 4
237 238 5
237 265 2
238 239 2
238 266 2
239 240 3
239 267 4
240 241 1
240 268 2
241 242 3
241 269 3
242 243 2
242 270 5
243 244 4
243 271 5
244 245 3
244 272 3
245 246 4
245 273 3
246 247 3
246 274 3
247 248 5
247 275 5
248 249 3
248 276 5
249 250 4
249 277 2
250 251 4
250 278 4
251 252 3
251 279 5
252 280 5
253 254 3
253 281 4
254 255 4
254 282 1
255 256 5
255 283 1
256 257 3
256 284 5
257 258 4
257 285 4
258 259 2
258 286 3
259 260 5
259 287 3
260 261 5
260 288 4
261 262 3
261 289 2
262 263 1
262 290 4
263 264 2
263 291 1
264 265 2
264 292 5
265 266 3
265 293 4
266 267 2
266 294 2
267 268 3
267 295 1
268 269 2
268 296 4
269 270 1
269 297 1
270 271 1
270 298 4
271 272 5
271 299 2
272 273 5
272 300 4
273 274 3
273 301 2
274 275 2
274 302 2
275 276 5
275 303 2
276 277 3
276 304 2
277 278 5
277 305 3
278 279 1
278 306 3
279 280 5
279 307 3
280 308 5
281 282 5
281 309 3
282 283 3
282 310 1
283 284 1
283 311 4
284 285 2
284 312 2
285 286 3
285 313 2
286 287 3
286 314 5
287 288 3
287 315 5
288 289 3
288 316 1
289 290 2
289 317 5
290 291 4
290 318 4
291 292 5
291 319 5
292 293 2
292 320 2
293 294 2
293 321 3
294 295 5
294 322 5
295 296 2
295 323 3
296 297 3
296 324 2
297 298 5
297 325 5
298 299 2
298 326 4
299 300 4
299 327 5
300 301 4
300 328 1
301 302 5
301 329 4
302 303 2
302 330 5
303 304 3
303 331 5
304 305 4
304 332 1
305 306 4
305 333 5
306 307 4
306 334 5
307 308 3
307 335 1
308 336 4
309 310 1
309 337 3
310 311 4
310 338 3
311 312 2
311 339 4
312 313 2
312 340 2
313 314 5
313 341 4
314 315 3
314 342 5
315 316 1
315 343 3
316 317 4
316 344 3
317 318 2
317 345 1
318 319 4
318 346 4
319 320 5
319 347 5
320 321 5
320 348 5
321 322 4
321 349 2
322 323 5
322 350 1
323 324 1
323 351 2
324 325 3
324 352 2
325 326 2
325 353 2
326 327 3
326 354 4
327 328 5
327 355 1
328 329 1
328 356 2
329 330 1
329 357 4
330 331 2
330 358 1
331 332 1
331 359 1
332 333 2
332 360 2
333 334 4
333 361 4
334 335 3
334 362 4
335 336 2
335 363 2
336 364 2
337 338 5
337 365 5
338 339 4
338 366 2
339 340 2
339 367 5
340 341 1
340 368 3
341 342 5
341 369 4
342 343 5
342 370 2
343 344 4
343 371 5
344 345 1
344 372 2
345 346 3
345 373 2
346 347 1
346 374 4
347 348 1
347 375 3
348 349 5
348 376 4
349 350 2
349 377 1
350 351 5
350 378 5
351 352 5
351 379 4
352 353 3
352 380 2
353 354 1
353 381 4
354 355 5
354 382 4
355 356 2
355 383 4
356 357 3
356 384 2
357 358 3
357 385 4
358 359 5
358 386 2
359 360 4
359 387 3
360 361 5
360 388 3
361 362 1
361 389 2
362 363 4
362 390 2
363 364 1
363 391 2
364 392 5
365 366 5
365 393 4
366 367 2
366 394 5
367 368 3
367 395 5
368 369 2
368 396 1
369 370 2
369 397 5
370 371 4
370 398 2
371 372 5
371 399 1
372 373 5
372 400 2
373 374 5
373 401 1
374 375 5
374 402 4
375 376 4
375 403 1
376 377 3
376 404 3
377 378 2
377 405 3
378 379 2
378 406 5
379 380 4
379 407 3
380 381 2
380 408 4
381 382 2
381 409 3
382 383 4
382 410 3
383 384 3
383 411 3
384 385 4
384 412 3
385 386 5
385 413 2
386 387 1
386 414 4
387 388 2
387 415 4
388 389 5
388 416 1
389 390 4
389 417 5
390 391 5
390 418 1
391 392 3
391 419 2
392 420 3
393 394 1
393 421 2
394 395 3
394 422 2
395 396 3
395 423 4
396 397 5
396 424 1
397 398 3
397 425 3
398 399 2
398 426 3
399 400 1
399 427 1
400 401 1
400 428 5
401 402 5
401 429 3
402 403 4
402 430 5
403 404 5
403 431 1
404 405 5
404 432 4
405 406 1
405 433 4
406 407 1
406 434 3
407 408 5
407 435 4
408 409 3
408 436 3
409 410 3
409 437 5
410 411 4
410 438 4
411 412 4
411 439 1
412 413 4
412 440 2
413 414 5
413 441 1
414 415 2
414 442 4
415 416 1
415 443 5
416 417 5
416 444 3
417 418 4
417 445 1
418 419 3
418 446 1
419 420 3
419 447 2
420 448 2
421 422 1
421 449 1
422 423 4
422 450 3
423 424 5
423 451 1
424 425 2
424 452 4
425 426 5
425 453 4
426 427 1
426 454 1
427 428 2
427 455 2
428 429 3
428 456 1
429 430 2
429 457 4
430 431 1
430 458 4
431 432 2
431 459 4
432 433 3
432 460 2
433 434 3
433 461 5
434 435 2
434 462 1
435 436 2
435 463 4
436 437 4
436 464 2
437 438 1
437 465 4
438 439 3
438 466 5
439 440 4
439 467 5
440 441 2
440 468 5
441 442 4
441 469 5
442 443 2
442 470 2
443 444 5
443 471 2
444 445 5
444 472 1
445 446 4
445 473 4
446 447 3
446 474 4
447 448 1
447 475 1
448 476 3
449 450 2
449 477 4
450 451 2
450 478 1
451 452 3
451 479 1
452 453 3
452 480 4
453 454 1
453 481 3
454 455 2
454 482 2
455 456 1
455 483 3
456 457 5
456 484 1
457 458 3
457 485 5
458 459 4
458 486 4
459 460 1
459 487 3
460 461 5
460 488 1
461 462 1
461 489 2
462 463 5
462 490 1
463 464 1
463 491 1
464 465 5
464 492 1
465 466 3
465 493 5
466 467 5
466 494 5
467 468 2
467 495 3
468 469 1
468 496 1
469 470 2
469 497 4
470 471 2
470 498 2
471 472 5
471 499 5
472 473 5
472 500 1
473 474 3
473 501 5
474 475 3
474 502 2
475 476 4
475 503 3
476 504 1
477 478 2
477 505 2
478 479 3
478 506 1
479 480 1
479 507 2
480 481 3
480 508 1
481 482 3
481 509 3
482 483 4
482 510 1
483 484 4
483 511 1
484 485 2
484 512 2
485 486 2
485 513 4
486 487 2
486 514 1
487 488 1
487 515 5
488 489 3
488 516 5
489 490 2
489 517 5
490 491 4
490 518 2
491 492 5
491 519 1
492 493 1
492 520 2
493 494 3
493 521 3
494 495 1
494 522 4
495 496 1
495 523 4
496 497 3
496 524 5
497 498 2
497 525 1
498 499 1
498 526 4
499 500 3
499 527 4
500 501 2
500 528 1
501 502 3
501 529 5
502 503 3
502 530 2
503 504 2
503 531 4
504 532 3
505 506 3
505 533 3
506 507 3
506 534 2
507 508 3
507 535 3
508 509 3
508 536 3
509 510 5
509 537 1
510 511 1
510 538 2
511 512 1
511 539 3
512 513 2
512 540 3
513 514 5
513 541 3
514 515 4
514 542 2
515 516 2
515 543 1
516 517 4
516 544 3
517 518 4
517 545 5
518 519 1
518 546 4
519 520 1
519 547 1
520 521 2
520 548 5
521 522 2
521 549 5
522 523 2
522 550 4
523 524 3
523 551 3
524 525 4
524 552 1
525 526 4
525 553 1
526 527 2
526 554 5
527 528 4
527 555 2
528 529 3
528 556 3
529 530 4
529 557 4
530 531 4
530 558 1
531 532 3
531 559 1
532 560 3
533 534 4
533 561 2
534 535 5
534 562 5
535 536 2
535 563 1
536 537 5
536 564 4
537 538 3
537 565 2
538 539 1
538 566 1
539 540 4
539 567 5
540 541 3
540 568 2
541 542 1
541 569 2
542 543 1
542 570 5
543 544 4
543 571 3
544 545 3
544 572 1
545 546 5
545 573 4
546 547 1
546 574 3
547 548 3
547 575 5
548 549 1
548 576 3
549 550 3
549 577 1
550 551 4
550 578 5
551 552 3
551 579 2
552 553 2
552 580 2
553 554 1
553 581 3
554 555 2
554 582 3
555 556 1
555 583 5
556 557 4
556 584 5
557 558 3
557 585 2
558 559 2
558 586 1
559 560 3
559 587 4
560 588 2
561 562 3
561 589 4
562 563 4
562 590 3
563 564 4
563 591 3
564 565 1
564 592 2
565 566 2
565 593 1
566 567 4
566 594 5
567 568 1
567 595 2
568 569 4
568 596 4
569 570 4
569 597 1
570 571 1
570 598 3
571 572 3
571 599 5
572 573 2
572 600 4
573 574 1
573 601 5
574 575 5
574 602 4
575 576 1
575 603 3
576 577 5
576 604 3
577 578 4
577 605 3
578 579 3
578 606 3
579 580 5
579 607 4
580 581 3
580 608 5
581 582 4
581 609 4
582 583 2
582 610 5
583 584 1
583 611 2
584 585 2
584 612 5
585 586 2
585 613 5
586 587 5
586 614 1
587 588 2
587 615 2
588 616 1
589 590 4
589 617 4
590 591 4
590 618 4
591 592 1
591 619 3
592 593 5
592 620 5
593 594 1
593 621 3
594 595 1
594 622 4
595 596 2
595 623 1
596 597 1
596 624 4
597 598 3
597 625 5
598 599 2
598 626 3
599 600 1
599 627 2
600 601 5
600 628 1
601 602 2
601 629 2
602 603 4
602 630 1
603 604 4
603 631 3
604 605 4
604 632 4
605 606 1
605 633 1
606 607 2
606 634 1
607 608 5
607 635 4
608 609 4
608 636 5
609 610 4
609 637 5
610 611 1
610 638 1
611 612 2
611 639 1
612 613 3
612 640 1
613 614 2
613 641 3
614 615 2
614 642 4
615 616 5
615 643 3
616 644 4
617 618 4
617 645 5
618 619 2
618 646 3
619 620 1
619 647 2
620 621 4
620 648 1
621 622 3
621 649 2
622 623 4
622 650 2
623 624 3
623 651 4
624 625 5
624 652 2
625 626 2
625 653 5
626 627 5
626 654 2
627 628 3
627 655 5
628 629 2
628 656 2
629 630 5
629 657 5
630 631 3
630 658 1
631 632 5
631 659 4
632 633 2
632 660 1
633 634 3
633 661 2
634 635 5
634 662 5
635 636 2
635 663 2
636 637 4
636 664 1
637 638 1
637 665 5
638 639 3
638 666 5
639 640 1
639 667 3
640 641 5
640 668 3
641 642 3
641 669 4
642 643 2
642 670 4
643 644 1
643 671 1
644 672 4
645 646 3
645 673 4
646 647 2
646 674 1
647 648 5
647 675 2
648 649 4
648 676 5
649 650 4
649 677 5
650 651 4
650 678 2
651 652 2
651 679 3
652 653 3
652 680 2
653 654 2
653 681 2
654 655 3
654 682 4
655 656 5
655 683 4
656 657 5
656 684 5
657 658 3
657 685 4
658 659 4
658 686 3
659 660 5
659 687 2
660 661 2
660 688 4
661 662 1
661 689 2
662 663 5
662 690 1
663 664 4
663 691 5
664 665 5
664 692 5
665 666 5
665 693 4
666 667 5
666 694 1
667 668 3
667 695 1
668 669 4
668 696 3
669 670 1
669 697 4
670 671 3
670 698 1
671 672 5
671 699 2
672 700 2
673 674 1
673 701 2
674 675 4
674 702 4
675 676 3
675 703 4
676 677 5
676 704 3
677 678 1
677 705 1
678 679 3
678 706 5
679 680 1
679 707 3
680 681 4
680 708 2
681 682 4
681 709 1
682 683 1
682 710 5
683 684 3
683 711 5
684 685 1
684 712 4
685 686 2
685 713 5
686 687 1
686 714 3
687 688 1
687 715 2
688 689 2
688 716 3
689 690 1
689 717 1
690 691 2
690 718 4
691 692 3
691 719 4
692 693 4
692 720 4
693 694 5
693 721 5
694 695 4
694 722 2
695 696 3
695 723 1
696 697 4
696 724 2
697 698 1
697 725 5
698 699 3
698 726 4
699 700 2
699 727 1
700 728 1
701 702 2
701 729 2
702 703 2
702 730 1
703 704 3
703 731 5
704 705 5
704 732 1
705 706 1
705 733 3
706 707 4
706 734 5
707 708 4
707 735 3
708 709 2
708 736 4
709 710 5
709 737 2
710 711 1
710 738 5
711 712 2
711 739 1
712 713 5
712 740 2
713 714 4
713 741 4
714 715 3
714 742 4
715 716 2
715 743 4
716 717 4
716 744 2
717 718 3
717 745 5
718 719 5
718 746 3
719 720 1
719 747 2
720 721 2
720 748 5
721 722 4
721 749 4
722 723 2
722 750 5
723 724 5
723 751 4
724 725 1
724 752 2
725 726 3
725 753 2
726 727 3
726 754 4
727 728 3
727 755 4
728 756 3
729 730 2
729 757 4
730 731 4
730 758 3
731 732 2
731 759 2
732 733 5
732 760 1
733 734 3
733 761 5
734 735 5
734 762 3
735 736 5
735 763 1
736 737 5
736 764 3
737 738 2
737 765 5
738 739 5
738 766 4
739 740 3
739 767 1
740 741 3
740 768 3
741 742 2
741 769 4
742 743 1
742 770 1
743 744 2
743 771 1
744 745 4
744 772 3
745 746 3
745 773 4
746 747 5
746 774 2
747 748 5
747 775 4
748 749 1
748 776 4
749 750 4
749 777 1
750 751 5
750 778 3
751 752 2
751 779 2
752 753 3
752 780 3
753 754 4
753 781 2
754 755 1
754 782 4
755 756 3
755 783 1
756 784 5
757 758 4
758 759 3
759 760 3
760 761 5
761 762 5
762 763 3
763 764 1
764 765 5
765 766 4
766 767 3
767 768 4
768 769 2
769 770 3
770 771 2
771 772 5
772 773 5
773 774 3
774 775 4
775 776 1
776 777 4
777 778 4
778 779 5
779 780 5
780 781 4
781 782 4
782 783 1
783 784 3
1 757 4
2 758 1
3 759 4
4 760 4
5 761 3
6 762 3
7 763 1
8 764 4
9 765 1
10 766 4
11 767 5
12 768 5
13 769 5
14 770 3
15 771 3
16 772 2
17 773 4
18 774 2
19 775 1
20 776 3
21 777 2
22 778 1
23 779 4
24 780 2
25 781 4
26 782 5
27 783 4
28 784 2
1 28 1
29 56 3
57 84 5
85 112 3
113 140 3
141 168 5
169 196 2
197 224 2
225 252 1
253 280 5
281 308 4
309 336 5
337 364 5
365 392 5
393 420 2
421 448 5
449 476 1
477 504 4
505 532 5
533 560 5
561 588 1
589 616 1
617 644 5
645 672 2
673 700 1
701 728 5
729 756 3
757 784 4
